Minimize
  obj: x0 + x1 + x2 + x3 + x4 + x5 + x6

Subject To
  c0: x2 + x4 + x6 = 25
  c1: x0 + x3 + x4 + x6 = 39
  c2: x5 + x6 = 24
  c3: x0 + x4 + x5 + x6 = 47
  c4: x1 + x4 = 11
  c5: x0 + x2 + x4 + x6 = 44
  c6: x0 + x1 + x3 + x4 + x5 = 56
  c7: x6 = 7
  c8: x4 + x6 = 11

Bounds
  x0 >= 0
  x1 >= 0
  x2 >= 0
  x3 >= 0
  x4 >= 0
  x5 >= 0
  x6 >= 0

Generals
  x0 x1 x2 x3 x4 x5 x6

End
